(set-logic ALL)
(declare-fun var0 () String)
(assert (str.in_re var0 (re.++ (re.* (re.+ (str.to_re "00"))) (re.++ (re.+ (re.* (str.to_re "1"))) (re.++ (re.union (re.union (str.to_re "22") (str.to_re "333")) (re.union (str.to_re "44") (str.to_re "55"))) (re.++ (re.+ (re.union (str.to_re "666") (str.to_re "7"))) (re.++ (re.+ (re.* (str.to_re "8"))) (re.++ (re.* (re.* (str.to_re "9"))) (re.++ (re.union (re.+ (str.to_re "a")) (re.+ (str.to_re "bb"))) (re.++ (re.+ (re.+ (str.to_re "ccc"))) (re.++ (re.+ (re.+ (str.to_re "d"))) (re.++ (re.union (re.union (str.to_re "ee") (str.to_re "ff")) (re.union (str.to_re "g") (str.to_re "h"))) (re.++ (re.+ (re.union (str.to_re "iii") (str.to_re "jj"))) (re.++ (re.* (re.union (str.to_re "k") (str.to_re "ll"))) (re.++ (re.* (re.union (str.to_re "mmm") (str.to_re "nn"))) (re.++ (re.* (re.+ (str.to_re "o"))) (re.++ (re.* (re.+ (str.to_re "pp"))) (re.++ (re.+ (re.+ (str.to_re "qqq"))) (re.++ (re.* (re.+ (str.to_re "rrr"))) (re.++ (re.+ (re.+ (str.to_re "sss"))) (re.++ (re.union (re.+ (str.to_re "t")) (re.+ (str.to_re "uu"))) (re.++ (re.* (re.* (str.to_re "vvv"))) (re.++ (re.* (re.* (str.to_re "w"))) (re.++ (re.* (re.* (str.to_re "xxx"))) (re.++ (re.+ (re.* (str.to_re "y"))) (re.++ (re.union (re.+ (str.to_re "zz")) (re.+ (str.to_re "A"))) (re.++ (re.+ (re.union (str.to_re "BB") (str.to_re "C"))) (re.++ (re.* (re.+ (str.to_re "D"))) (re.++ (re.+ (re.+ (str.to_re "EE"))) (re.++ (re.+ (re.* (str.to_re "FF"))) (re.++ (re.union (re.union (str.to_re "GG") (str.to_re "HHH")) (re.union (str.to_re "III") (str.to_re "JJ"))) (re.++ (re.union (re.union (str.to_re "KK") (str.to_re "L")) (re.union (str.to_re "MM") (str.to_re "NN"))) (re.++ (re.+ (re.* (str.to_re "OOO"))) (re.++ (re.* (re.+ (str.to_re "PPP"))) (re.++ (re.union (re.* (str.to_re "QQQ")) (re.* (str.to_re "R"))) (re.++ (re.* (re.* (str.to_re "SSS"))) (re.++ (re.union (re.+ (str.to_re "TTT")) (re.+ (str.to_re "UUU"))) (re.++ (re.union (re.* (str.to_re "VV")) (re.* (str.to_re "WW"))) (re.++ (re.union (re.* (str.to_re "X")) (re.* (str.to_re "Y"))) (re.++ (re.* (re.* (str.to_re "ZZZ"))) (re.++ (re.* (re.* (str.to_re "!"))) (re.++ (re.* (re.union (str.to_re """") (str.to_re "##"))) (re.++ (re.* (re.* (str.to_re "$$$"))) (re.++ (re.union (re.+ (str.to_re "%%%")) (re.+ (str.to_re "&&&"))) (re.++ (re.* (re.+ (str.to_re "''"))) (re.++ (re.* (re.+ (str.to_re "((("))) (re.++ (re.+ (re.* (str.to_re ")))"))) (re.++ (re.* (re.+ (str.to_re "*"))) (re.++ (re.* (re.union (str.to_re "++") (str.to_re ",,"))) (re.++ (re.+ (re.* (str.to_re "---"))) (re.++ (re.+ (re.union (str.to_re "..") (str.to_re "///"))) (re.++ (re.union (re.+ (str.to_re ":::")) (re.+ (str.to_re ";;"))) (re.++ (re.* (re.+ (str.to_re "<<<"))) (re.++ (re.+ (re.+ (str.to_re "=="))) (re.++ (re.* (re.* (str.to_re ">>>"))) (re.++ (re.+ (re.* (str.to_re "???"))) (re.++ (re.+ (re.+ (str.to_re "@@@"))) (re.++ (re.union (re.union (str.to_re "[[[") (str.to_re "\\")) (re.union (str.to_re "]]]") (str.to_re "^^^"))) (re.++ (re.* (re.* (str.to_re "_"))) (re.++ (re.+ (re.* (str.to_re "``"))) (re.++ (re.+ (re.union (str.to_re "{{{") (str.to_re "||"))) (re.++ (re.* (re.* (str.to_re "}"))) (re.++ (re.union (re.union (str.to_re "~~~") (str.to_re "000")) (re.union (str.to_re "111") (str.to_re "2"))) (re.++ (re.* (re.+ (str.to_re "3"))) (re.++ (re.+ (re.union (str.to_re "444") (str.to_re "55"))) (re.++ (re.+ (re.+ (str.to_re "66"))) (re.++ (re.+ (re.union (str.to_re "7") (str.to_re "888"))) (re.++ (re.+ (re.* (str.to_re "9"))) (re.++ (re.* (re.union (str.to_re "aa") (str.to_re "bbb"))) (re.++ (re.* (re.union (str.to_re "ccc") (str.to_re "d"))) (re.++ (re.* (re.* (str.to_re "eee"))) (re.++ (re.union (re.+ (str.to_re "fff")) (re.+ (str.to_re "g"))) (re.++ (re.union (re.+ (str.to_re "hh")) (re.+ (str.to_re "ii"))) (re.++ (re.* (re.+ (str.to_re "jj"))) (re.++ (re.+ (re.* (str.to_re "kk"))) (re.++ (re.* (re.union (str.to_re "l") (str.to_re "mmm"))) (re.++ (re.union (re.union (str.to_re "nnn") (str.to_re "ooo")) (re.union (str.to_re "p") (str.to_re "qqq"))) (re.++ (re.+ (re.* (str.to_re "rrr"))) (re.++ (re.+ (re.+ (str.to_re "sss"))) (re.++ (re.* (re.* (str.to_re "t"))) (re.++ (re.+ (re.* (str.to_re "uu"))) (re.++ (re.* (re.+ (str.to_re "vv"))) (re.++ (re.* (re.* (str.to_re "www"))) (re.++ (re.* (re.union (str.to_re "xx") (str.to_re "yyy"))) (re.++ (re.* (re.+ (str.to_re "zz"))) (re.++ (re.* (re.union (str.to_re "AAA") (str.to_re "B"))) (re.++ (re.+ (re.union (str.to_re "CC") (str.to_re "DDD"))) (re.++ (re.+ (re.union (str.to_re "E") (str.to_re "FFF"))) (re.++ (re.+ (re.union (str.to_re "GGG") (str.to_re "HHH"))) (re.++ (re.union (re.* (str.to_re "III")) (re.* (str.to_re "J"))) (re.++ (re.* (re.+ (str.to_re "KK"))) (re.++ (re.* (re.+ (str.to_re "LL"))) (re.++ (re.* (re.union (str.to_re "MM") (str.to_re "NNN"))) (re.++ (re.union (re.+ (str.to_re "O")) (re.+ (str.to_re "PP"))) (re.++ (re.union (re.* (str.to_re "QQ")) (re.* (str.to_re "R"))) (re.++ (re.+ (re.* (str.to_re "SS"))) (re.++ (re.+ (re.* (str.to_re "TTT"))) (re.++ (re.+ (re.* (str.to_re "U"))) (re.++ (re.union (re.+ (str.to_re "VVV")) (re.+ (str.to_re "WW"))) (re.++ (re.+ (re.union (str.to_re "XXX") (str.to_re "YYY"))) (re.++ (re.union (re.* (str.to_re "Z")) (re.* (str.to_re "!"))) (re.++ (re.union (re.* (str.to_re """""""")) (re.* (str.to_re "#"))) (re.++ (re.* (re.union (str.to_re "$$$") (str.to_re "%"))) (re.++ (re.union (re.* (str.to_re "&&")) (re.* (str.to_re "''"))) (re.++ (re.+ (re.* (str.to_re "(("))) (re.++ (re.union (re.union (str.to_re ")") (str.to_re "*")) (re.union (str.to_re "++") (str.to_re ",,,"))) (re.++ (re.* (re.+ (str.to_re "--"))) (re.* (re.union (str.to_re ".") (str.to_re "/"))))))))))))))))))))))))))))))))))))))))))))))))))))))))))))))))))))))))))))))))))))))))))))))))))))))))))))))
(check-sat)